(declare-const y0 Real)
(declare-const y1 Real)
(declare-const y2 Real)
(declare-const y3 Real)
(declare-const y4 Real)
(declare-const y5 Real)
(declare-const y6 Real)
(declare-const y7 Real)
(declare-const y8 Real)
(declare-const y9 Real)
(declare-const y10 Real)
(declare-const y11 Real)
(declare-const y12 Real)
(declare-const y13 Real)
(declare-const y14 Real)
(declare-const y15 Real)
(declare-const y16 Real)
(declare-const y17 Real)
(declare-const y18 Real)
(declare-const y19 Real)
(declare-const y20 Real)
(declare-const y21 Real)
(declare-const y22 Real)
(declare-const y23 Real)
(declare-const y24 Real)
(declare-const y25 Real)
(declare-const y26 Real)
(declare-const y27 Real)
(declare-const y28 Real)
(declare-const y29 Real)
(declare-const y30 Real)
(declare-const y31 Real)
(declare-const y32 Real)
(declare-const y33 Real)
(declare-const y34 Real)
(declare-const y35 Real)
(declare-const y36 Real)
(declare-const y37 Real)
(declare-const y38 Real)
(declare-const y39 Real)
(declare-const y40 Real)
(declare-const y41 Real)
(declare-const y42 Real)
(declare-const y43 Real)
(declare-const y44 Real)
(declare-const y45 Real)
(declare-const y46 Real)
(declare-const y47 Real)
(declare-const y48 Real)
(declare-const y49 Real)
(declare-const y50 Real)
(declare-const y51 Real)
(declare-const y52 Real)
(declare-const y53 Real)
(declare-const y54 Real)
(declare-const y55 Real)
(declare-const y56 Real)
(declare-const y57 Real)
(declare-const y58 Real)
(declare-const y59 Real)
(declare-const y60 Real)
(declare-const y61 Real)
(declare-const y62 Real)
(declare-const y63 Real)
(declare-const y64 Real)
(declare-const y65 Real)
(declare-const y66 Real)
(declare-const y67 Real)
(declare-const y68 Real)
(declare-const y69 Real)
(declare-const y70 Real)
(declare-const y71 Real)
(declare-const y72 Real)
(declare-const y73 Real)
(declare-const y74 Real)
(assert (= y12 y62))
(assert (< 26 y64))
(assert (< y14 40))
(assert (< 78 90))
(assert (< (+ y25 y17) 78))
(assert (= y0 y21))
(assert (= (< y6 y68) (= 87 70)))
(assert (< (+ 33 y71) 94))
(assert (< (+ y41 54) (+ y16 y28)))
(assert (< y66 42))
(check-sat)
